100 8
164 165
685 423
579 117
371 276
839 867
716 927
633 106
102 631
352 372
57 665
386 746
804 516
497 472
813 559
733 426
374 422
419 652
412 740
611 97
507 340
307 163
616 179
738 819
452 682
120 214
696 978
66 810
526 331
181 242
521 152
211 557
471 666
261 165
743 603
382 750
661 420
147 215
709 961
121 579
721 807
226 190
156 818
167 69
828 924
349 503
23 665
356 633
509 282
826 903
343 342
275 95
703 839
188 188
838 866
180 211
769 701
193 791
602 149
498 133
483 458
496 682
541 567
326 221
627 140
346 94
113 127
351 613
720 824
450 604
374 594
38 694
289 715
510 114
841 875
710 792
920 897
727 586
352 244
657 838
784 699
121 676
359 502
597 157
394 201
770 419
430 654
278 536
643 194
684 633
427 222
449 662
624 732
359 102
156 42
177 676
436 586
111 707
641 725
136 712
630 861
